(declare-sort $$unsorted 0)
(declare-fun tptp.op ($$unsorted $$unsorted) $$unsorted)
(assert (forall ((X0 $$unsorted) (X1 $$unsorted) (X2 $$unsorted)) (= (tptp.op X0 X0) (tptp.op (tptp.op (tptp.op X0 X1) X1) X2))))
(assert (not (forall ((X0 $$unsorted) (X1 $$unsorted) (X2 $$unsorted)) (let ((_let_1 (tptp.op X0 X0))) (= _let_1 (tptp.op (tptp.op _let_1 X1) X2))))))
(set-info :filename Equation4075_implies_Equation4069)
(check-sat-assuming ( true ))
